<?xml version = "1.0" standalone="yes"?>
<!-- This file has been generated by DOcplex version 2.23.222  -->
<CPLEXSolution version="1.0">
 <header
   problemName="CVRP"
   objectiveValue="11164.1"
  />
 <variables>
  <variable name="x_0_1" index="0" value="1.00000"/>
  <variable name="x_0_2" index="1" value="1.00000"/>
  <variable name="x_0_4" index="3" value="1.00000"/>
  <variable name="x_0_6" index="5" value="1.00000"/>
  <variable name="x_0_7" index="6" value="1.00000"/>
  <variable name="x_0_8" index="7" value="1.00000"/>
  <variable name="x_0_9" index="8" value="1.00000"/>
  <variable name="x_0_10" index="9" value="1.00000"/>
  <variable name="x_0_12" index="11" value="1.00000"/>
  <variable name="x_0_13" index="12" value="1.00000"/>
  <variable name="x_0_16" index="15" value="1.00000"/>
  <variable name="x_0_18" index="17" value="1.00000"/>
  <variable name="x_1_0" index="19" value="1.00000"/>
  <variable name="x_2_0" index="38" value="1.00000"/>
  <variable name="x_3_0" index="57" value="1.00000"/>
  <variable name="x_4_15" index="90" value="1.00000"/>
  <variable name="x_5_0" index="95" value="1.00000"/>
  <variable name="x_6_0" index="114" value="1.00000"/>
  <variable name="x_7_17" index="149" value="1.00000"/>
  <variable name="x_8_0" index="152" value="1.00000"/>
  <variable name="x_9_5" index="176" value="1.00000"/>
  <variable name="x_10_19" index="208" value="1.00000"/>
  <variable name="x_11_0" index="209" value="1.00000"/>
  <variable name="x_12_0" index="228" value="1.00000"/>
  <variable name="x_13_14" index="260" value="1.00000"/>
  <variable name="x_14_0" index="266" value="1.00000"/>
  <variable name="x_15_3" index="288" value="1.00000"/>
  <variable name="x_16_11" index="315" value="1.00000"/>
  <variable name="x_17_0" index="323" value="1.00000"/>
  <variable name="x_18_0" index="342" value="1.00000"/>
  <variable name="x_19_0" index="361" value="1.00000"/>
  <variable name="u_1" index="380" value="20.00000"/>
  <variable name="u_2" index="381" value="20.00000"/>
  <variable name="u_3" index="382" value="19.00000"/>
  <variable name="u_4" index="383" value="1.00000"/>
  <variable name="u_5" index="384" value="20.00000"/>
  <variable name="u_6" index="385" value="12.00000"/>
  <variable name="u_7" index="386" value="7.00000"/>
  <variable name="u_8" index="387" value="20.00000"/>
  <variable name="u_9" index="388" value="9.00000"/>
  <variable name="u_10" index="389" value="10.00000"/>
  <variable name="u_11" index="390" value="20.00000"/>
  <variable name="u_12" index="391" value="20.00000"/>
  <variable name="u_13" index="392" value="8.00000"/>
  <variable name="u_14" index="393" value="17.00000"/>
  <variable name="u_15" index="394" value="7.00000"/>
  <variable name="u_16" index="395" value="15.00000"/>
  <variable name="u_17" index="396" value="16.00000"/>
  <variable name="u_18" index="397" value="16.00000"/>
  <variable name="u_19" index="398" value="18.00000"/>
 </variables>
</CPLEXSolution>
